language Essence 1.3

letting class be
        function(1 --> 1, 2 --> 4, 3 --> 9, 4 --> 4, 5 --> 3, 6 --> 2, 7 --> 8, 8 --> 8, 9 --> 2, 10 --> 8, 11 --> 7,
                 12 --> 9, 13 --> 5, 14 --> 4, 15 --> 1, 16 --> 6, 17 --> 3, 18 --> 6, 19 --> 3, 20 --> 7, 21 --> 5,
                 22 --> 9, 23 --> 2, 24 --> 2, 25 --> 2, 26 --> 8, 27 --> 6)
letting deck_length be 83
letting deck_width be 54
letting length be
        function(1 --> 2, 2 --> 1, 3 --> 10, 4 --> 9, 5 --> 1, 6 --> 29, 7 --> 1, 8 --> 1, 9 --> 1, 10 --> 1, 11 --> 1,
                 12 --> 1, 13 --> 1, 14 --> 1, 15 --> 1, 16 --> 10, 17 --> 1, 18 --> 2, 19 --> 1, 20 --> 1, 21 --> 2,
                 22 --> 1, 23 --> 1, 24 --> 1, 25 --> 1, 26 --> 1, 27 --> 1)
letting n_classes be 9
letting n_containers be 27
letting separation be function()
letting width be
        function(1 --> 30, 2 --> 1, 3 --> 36, 4 --> 39, 5 --> 16, 6 --> 41, 7 --> 1, 8 --> 28, 9 --> 1, 10 --> 1,
                 11 --> 1, 12 --> 1, 13 --> 13, 14 --> 1, 15 --> 1, 16 --> 42, 17 --> 25, 18 --> 1, 19 --> 17, 20 --> 1,
                 21 --> 19, 22 --> 11, 23 --> 1, 24 --> 11, 25 --> 1, 26 --> 1, 27 --> 1)
